15 52
1 2 72
1 3 48
1 5 5
1 7 86
1 9 20
1 11 63
1 13 89
2 3 65
2 4 63
2 6 15
2 7 95
2 8 79
2 9 39
2 12 52
2 13 13
2 14 45
2 15 17
3 4 67
3 9 44
3 12 86
4 5 69
4 6 21
4 7 2
4 10 66
4 11 44
4 12 62
4 13 39
4 14 30
5 9 33
5 11 4
5 13 5
5 15 75
6 7 2
6 9 66
6 11 88
6 12 64
6 13 26
6 14 58
6 15 11
7 8 44
7 10 44
7 14 38
8 10 93
8 13 24
8 15 17
10 12 19
10 13 98
10 15 9
11 14 4
11 15 47
12 14 99
12 15 84
